(set-info :status unknown)
(declare-fun %D () (_ BitVec 35))
(declare-fun %C () (_ BitVec 35))
(declare-fun %Cond () (_ BitVec 1))
(assert
 (let ((?x16873 ((_ sign_extend 34) %Cond)))
 (let ((?x23250 (bvxor ?x16873 (_ bv34359738367 35))))
 (let ((?x8513 (bvand ?x23250 %D)))
 (let ((?x84 (bvand ?x16873 %C)))
 (and (distinct (bvor ?x84 ?x8513) (ite (= %Cond (_ bv1 1)) %C %D)) true))))))
(check-sat)
